NAME          Slots selection
ROWS
 N  *OBJ*
 E  slot_42
 E  slot_41
 E  slot_40
 E  slot_39
 E  slot_38
 E  slot_37
 E  slot_36
 E  slot_35
 E  slot_34
 E  slot_33
 E  slot_32
 E  slot_31
 E  slot_30
 E  slot_29
 E  slot_28
 E  slot_27
 E  slot_26
 E  slot_25
 E  slot_24
 E  slot_23
 E  slot_22
 E  slot_21
 E  slot_20
 E  slot_19
 E  slot_18
 E  slot_17
 E  slot_16
 E  slot_15
 E  slot_14
 E  slot_13
 E  slot_12
 E  slot_11
 E  slot_10
 E  slot_9
 E  slot_8
 E  slot_7
 E  slot_6
 E  slot_5
 E  slot_4
 E  slot_3
 E  slot_2
 E  slot_1
 E  slot

COLUMNS
    WR_(0)    slot_32   1
    WR_(0)    *OBJ*     1.00005e+006
    WR_(1)    slot_36   1
    WR_(1)    *OBJ*     1.00003e+006
    WR_(2)    slot_5    1
    WR_(2)    *OBJ*     1.00006e+006
    WR_(3)    slot_21   1
    WR_(3)    *OBJ*     1.00003e+006
    WR_(4)    slot_7    1
    WR_(4)    slot_28   1
    WR_(4)    *OBJ*     76
    WR_(5)    slot_9    1
    WR_(5)    *OBJ*     1.00003e+006
    WR_(6)    slot_33   1
    WR_(6)    *OBJ*     1.00003e+006
    WR_(7)    slot_28   1
    WR_(7)    *OBJ*     1.00003e+006
    WR_(8)    slot      1
    WR_(8)    *OBJ*     1.00003e+006
    WR_(9)    slot_1    1
    WR_(9)    *OBJ*     1.00003e+006
    WR_(10)   slot_2    1
    WR_(10)   *OBJ*     1.00008e+006
    WR_(11)   slot_3    1
    WR_(11)   *OBJ*     1.00008e+006
    WR_(12)   slot_4    1
    WR_(12)   *OBJ*     1.00003e+006
    WR_(13)   slot_5    1
    WR_(13)   *OBJ*     1.00006e+006
    WR_(14)   slot_6    1
    WR_(14)   *OBJ*     1.00005e+006
    WR_(15)   slot_7    1
    WR_(15)   *OBJ*     1.00005e+006
    WR_(16)   slot_8    1
    WR_(16)   *OBJ*     1.00006e+006
    WR_(17)   slot_9    1
    WR_(17)   *OBJ*     1.00003e+006
    WR_(18)   slot_10   1
    WR_(18)   *OBJ*     1.00003e+006
    WR_(19)   slot_11   1
    WR_(19)   *OBJ*     1.00008e+006
    WR_(20)   slot_12   1
    WR_(20)   *OBJ*     1.00003e+006
    WR_(21)   slot_13   1
    WR_(21)   *OBJ*     1.00003e+006
    WR_(22)   slot_14   1
    WR_(22)   *OBJ*     1.00009e+006
    WR_(23)   slot_15   1
    WR_(23)   *OBJ*     1.00003e+006
    WR_(24)   slot_16   1
    WR_(24)   *OBJ*     1.00009e+006
    WR_(25)   slot_17   1
    WR_(25)   *OBJ*     1.00003e+006
    WR_(26)   slot_18   1
    WR_(26)   *OBJ*     1.00006e+006
    WR_(27)   slot_19   1
    WR_(27)   *OBJ*     1.00012e+006
    WR_(28)   slot_20   1
    WR_(28)   *OBJ*     1.00003e+006
    WR_(29)   slot_21   1
    WR_(29)   *OBJ*     1.00003e+006
    WR_(30)   slot_22   1
    WR_(30)   *OBJ*     1.00006e+006
    WR_(31)   slot_23   1
    WR_(31)   *OBJ*     1.00009e+006
    WR_(32)   slot_24   1
    WR_(32)   *OBJ*     1.00006e+006
    WR_(33)   slot_25   1
    WR_(33)   *OBJ*     1.00009e+006
    WR_(34)   slot_26   1
    WR_(34)   *OBJ*     1.00006e+006
    WR_(35)   slot_27   1
    WR_(35)   *OBJ*     1.00009e+006
    WR_(36)   slot_28   1
    WR_(36)   *OBJ*     1.00003e+006
    WR_(37)   slot_29   1
    WR_(37)   *OBJ*     1.00003e+006
    WR_(38)   slot_30   1
    WR_(38)   *OBJ*     1.00009e+006
    WR_(39)   slot_31   1
    WR_(39)   *OBJ*     1.00009e+006
    WR_(40)   slot_32   1
    WR_(40)   *OBJ*     1.00005e+006
    WR_(41)   slot_33   1
    WR_(41)   *OBJ*     1.00003e+006
    WR_(42)   slot_34   1
    WR_(42)   *OBJ*     1.00005e+006
    WR_(43)   slot_35   1
    WR_(43)   *OBJ*     1.00009e+006
    WR_(44)   slot_36   1
    WR_(44)   *OBJ*     1.00003e+006
    WR_(45)   slot_37   1
    WR_(45)   *OBJ*     1.00003e+006
    WR_(46)   slot_38   1
    WR_(46)   *OBJ*     1.00009e+006
    WR_(47)   slot_39   1
    WR_(47)   *OBJ*     1.00003e+006
    WR_(48)   slot_40   1
    WR_(48)   *OBJ*     1.00003e+006
    WR_(49)   slot_41   1
    WR_(49)   *OBJ*     1.00003e+006
    WR_(50)   slot_42   1
    WR_(50)   *OBJ*     1.00003e+006

RHS
    *RHS*     slot_42   1
    *RHS*     slot_41   1
    *RHS*     slot_40   1
    *RHS*     slot_39   1
    *RHS*     slot_38   1
    *RHS*     slot_37   1
    *RHS*     slot_36   1
    *RHS*     slot_35   1
    *RHS*     slot_34   1
    *RHS*     slot_33   1
    *RHS*     slot_32   1
    *RHS*     slot_31   1
    *RHS*     slot_30   1
    *RHS*     slot_29   1
    *RHS*     slot_28   1
    *RHS*     slot_27   1
    *RHS*     slot_26   1
    *RHS*     slot_25   1
    *RHS*     slot_24   1
    *RHS*     slot_23   1
    *RHS*     slot_22   1
    *RHS*     slot_21   1
    *RHS*     slot_20   1
    *RHS*     slot_19   1
    *RHS*     slot_18   1
    *RHS*     slot_17   1
    *RHS*     slot_16   1
    *RHS*     slot_15   1
    *RHS*     slot_14   1
    *RHS*     slot_13   1
    *RHS*     slot_12   1
    *RHS*     slot_11   1
    *RHS*     slot_10   1
    *RHS*     slot_9    1
    *RHS*     slot_8    1
    *RHS*     slot_7    1
    *RHS*     slot_6    1
    *RHS*     slot_5    1
    *RHS*     slot_4    1
    *RHS*     slot_3    1
    *RHS*     slot_2    1
    *RHS*     slot_1    1
    *RHS*     slot      1

BOUNDS
 BV *BND*     WR_(0)
 BV *BND*     WR_(1)
 BV *BND*     WR_(2)
 BV *BND*     WR_(3)
 BV *BND*     WR_(4)
 BV *BND*     WR_(5)
 BV *BND*     WR_(6)
 BV *BND*     WR_(7)
 BV *BND*     WR_(8)
 BV *BND*     WR_(9)
 BV *BND*     WR_(10)
 BV *BND*     WR_(11)
 BV *BND*     WR_(12)
 BV *BND*     WR_(13)
 BV *BND*     WR_(14)
 BV *BND*     WR_(15)
 BV *BND*     WR_(16)
 BV *BND*     WR_(17)
 BV *BND*     WR_(18)
 BV *BND*     WR_(19)
 BV *BND*     WR_(20)
 BV *BND*     WR_(21)
 BV *BND*     WR_(22)
 BV *BND*     WR_(23)
 BV *BND*     WR_(24)
 BV *BND*     WR_(25)
 BV *BND*     WR_(26)
 BV *BND*     WR_(27)
 BV *BND*     WR_(28)
 BV *BND*     WR_(29)
 BV *BND*     WR_(30)
 BV *BND*     WR_(31)
 BV *BND*     WR_(32)
 BV *BND*     WR_(33)
 BV *BND*     WR_(34)
 BV *BND*     WR_(35)
 BV *BND*     WR_(36)
 BV *BND*     WR_(37)
 BV *BND*     WR_(38)
 BV *BND*     WR_(39)
 BV *BND*     WR_(40)
 BV *BND*     WR_(41)
 BV *BND*     WR_(42)
 BV *BND*     WR_(43)
 BV *BND*     WR_(44)
 BV *BND*     WR_(45)
 BV *BND*     WR_(46)
 BV *BND*     WR_(47)
 BV *BND*     WR_(48)
 BV *BND*     WR_(49)
 BV *BND*     WR_(50)

ENDATA
